Route #1: 1 7 57 23 33 41 51 18
Route #2: 1 2 55 44 46 25 19 29
Route #3: 1 37 48 6 22 42 30 54 5 50
Route #4: 1 4 47 32 56 11 31
Route #5: 1 21 12 15 35 45 43 8
Route #6: 1 26 52 16 9 38 24 3
Route #7: 1 28 10 53 34 13 49
Route #8: 1 40 27 17 14 20 39
Route #9: 1 36
cost 1795
